#######################################
### Exact MIP solver for the HHCRSP ###
#######################################
-- Instance file: new-instances/HHCRSP_200_40_55_0.8_R_RC.txt
-- Max threads: 4
-- Time limit: 999999 seconds
-- Use initial solution: No
Trivial flow violations prevented generating 341437 variables.
Version identifier: 20.1.0.0 | 2020-11-10 | 9bedb6d68
CPXPARAM_Threads                                 4
CPXPARAM_TimeLimit                               999999
Parallel mode: deterministic, using up to 4 threads for concurrent optimization:
 * Starting dual Simplex on 1 thread...
 * Starting Barrier on 3 threads...
Tried aggregator 1 time.
LP Presolve eliminated 20526 rows and 4739 columns.
Reduced LP has 378028 rows, 360844 columns, and 6314973 nonzeros.
Presolve time = 13.98 sec. (1468.30 ticks)
Symmetry aggregator did 580637 additional substitutions.
Initializing dual steep norms . . .

Iteration log . . .
Iteration:     1   Dual objective     =             0.333333

Dual crossover.
  Dual:  Fixing 869 variables.
      868 DMoves:  Infeasibility  6.62636621e-13  Objective  2.88000000e+02
        0 DMoves:  Infeasibility  1.95917365e-13  Objective  2.88000000e+02
  Dual:  Pushed 60, exchanged 809.
  Primal:  Fixing 665 variables.
      664 PMoves:  Infeasibility  4.71844785e-16  Objective  2.88000000e+02
        0 PMoves:  Infeasibility  7.77156117e-16  Objective  2.88000000e+02
  Primal:  Pushed 568, exchanged 97.

Dual simplex solved model.


Solution status from MIP model:
-- Processing time: 21.717 sec.
-- Memory used: 401.294 MB
-- Best bound: inf
-- Obj value: 288
-- Gap: inf%
-- Total distance: 864
-- Total tardiness: 0
-- Largest tardiness: 0
